problem_generation/data/GISP/train/er_n=63_m=1145_p=0.60_SET2_setparam=100.00_alpha=0.50_582.lp
maximize
OBJ:100x0 + 100x1 + 100x2 + 100x3 + 100x4 + 100x5 + 100x6 + 100x7 + 100x8 + 100x9 + 100x10 + 100x11 + 100x12 + 100x13 + 100x14 + 100x15 + 100x16 + 100x17 + 100x18 + 100x19 + 100x20 + 100x21 + 100x22 + 100x23 + 100x24 + 100x25 + 100x26 + 100x27 + 100x28 + 100x29 + 100x30 + 100x31 + 100x32 + 100x33 + 100x34 + 100x35 + 100x36 + 100x37 + 100x38 + 100x39 + 100x40 + 100x41 + 100x42 + 100x43 + 100x44 + 100x45 + 100x46 + 100x47 + 100x48 + 100x49 + 100x50 + 100x51 + 100x52 + 100x53 + 100x54 + 100x55 + 100x56 + 100x57 + 100x58 + 100x59 + 100x60 + 100x61 + 100x62 - y15_30 - y15_39 - y28_58 - y7_35 - y29_41 - y48_54 - y29_50 - y40_50 - y29_59 - y10_27 - y41_42 - y41_51 - y44_47 - y25_43 - y22_28 - y3_33 - y14_33 - y14_51 - y47_57 - y7_30 - y9_49 - y5_60 - y17_62 - y28_62 - y9_58 - y21_32 - y0_9 - y6_43 - y48_58 - y21_41 - y25_38 - y10_49 - y44_51 - y25_47 - y22_32 - y13_60 - y3_37 - y36_52 - y17_48 - y28_48 - y36_61 - y47_61 - y9_62 - y21_27 - y48_53 - y40_58 - y25_33 - y2_40 - y32_41 - y43_50 - y35_46 - y14_23 - y43_59 - y35_55 - y16_51 - y1_62 - y17_34 - y7_11 - y36_47 - y28_43 - y9_39 - y5_50 - y9_48 - y5_59 - y9_57 - y6_42 - y40_44 - y21_40 - y21_49 - y10_21 - y39_57 - y2_17 - y10_30 - y2_26 - y32_36 - y51_58 - y24_41 - y3_18 - y32_54 - y13_59 - y16_55 - y17_29 - y5_36 - y17_38 - y28_38 - y17_47 - y28_47 - y17_56 - y28_56 - y9_52 - y27_60 - y6_37 - y20_39 - y10_16 - y39_52 - y20_48 - y39_61 - y20_57 - y54_59 - y1_34 - y35_45 - y1_52 - y13_54 - y24_54 - y35_54 - y9_11 - y5_22 - y17_24 - y57_60 - y5_49 - y6_23 - y42_44 - y50_57 - y42_53 - y19_60 - y42_62 - y31_34 - y39_47 - y31_43 - y2_16 - y20_61 - y12_57 - y13_22 - y23_57 - y4_53 - y32_35 - y24_31 - y4_62 - y1_38 - y13_49 - y35_49 - y1_56 - y16_54 - y46_55 - y9_15 - y49_51 - y17_28 - y38_60 - y49_60 - y17_37 - y27_41 - y11_51 - y0_60 - y12_25 - y39_42 - y31_38 - y12_34 - y23_34 - y31_47 - y20_56 - y1_15 - y13_17 - y53_62 - y16_22 - y34_58 - y13_35 - y16_31 - y35_44 - y5_12 - y46_50 - y15_53 - y5_30 - y9_28 - y15_62 - y5_39 - y27_36 - y19_32 - y27_45 - y8_41 - y42_43 - y50_56 - y42_61 - y0_55 - y12_20 - y20_42 - y4_25 - y20_51 - y4_34 - y12_47 - y1_10 - y53_57 - y4_52 - y34_53 - y24_30 - y4_61 - y22_60 - y34_62 - y1_37 - y1_46 - y38_41 - y15_48 - y26_48 - y26_57 - y49_59 - y7_53 - y8_27 - y19_27 - y27_40 - y8_36 - y19_36 - y30_36 - y0_41 - y0_50 - y12_15 - y20_28 - y0_59 - y39_41 - y41_60 - y37_44 - y22_55 - y1_32 - y16_30 - y15_34 - y46_49 - y26_43 - y38_45 - y46_58 - y15_52 - y18_48 - y26_61 - y18_57 - y8_31 - y0_27 - y8_40 - y11_36 - y30_49 - y0_45 - y12_19 - y4_15 - y33_51 - y33_60 - y44_60 - y1_18 - y34_61 - y56_61 - y15_20 - y15_29 - y7_25 - y38_40 - y38_49 - y15_56 - y8_17 - y18_61 - y19_26 - y0_22 - y11_22 - y29_58 - y30_44 - y12_14 - y41_50 - y4_19 - y10_53 - y33_55 - y10_62 - y1_4 - y25_60 - y34_38 - y3_32 - y22_45 - y34_56 - y3_59 - y15_24 - y18_20 - y18_38 - y26_51 - y19_21 - y48_57 - y29_53 - y19_30 - y0_26 - y21_58 - y11_35 - y4_5 - y44_50 - y25_46 - y33_59 - y25_55 - y2_62 - y37_38 - y22_49 - y34_51 - y37_47 - y22_58 - y14_54 - y37_56 - y7_15 - y26_28 - y59_62 - y26_37 - y18_33 - y29_39 - y11_12 - y40_48 - y21_44 - y29_57 - y21_62 - y25_32 - y2_39 - y33_54 - y2_48 - y3_13 - y25_59 - y3_31 - y22_44 - y14_40 - y37_42 - y36_46 - y28_51 - y0_7 - y48_56 - y21_39 - y6_50 - y11_16 - y40_52 - y21_57 - y10_29 - y41_44 - y2_25 - y10_47 - y33_49 - y3_8 - y22_39 - y13_58 - y3_44 - y14_44 - y36_41 - y36_50 - y36_59 - y59_61 - y9_51 - y6_27 - y48_51 - y29_47 - y21_43 - y6_54 - y40_56 - y21_61 - y54_58 - y10_42 - y2_38 - y10_51 - y3_12 - y22_25 - y51_61 - y3_21 - y13_53 - y24_53 - y1_60 - y35_62 - y28_32 - y7_9 - y36_45 - y17_41 - y28_41 - y9_37 - y17_50 - y28_50 - y17_59 - y28_59 - y58_60 - y9_55 - y6_31 - y21_29 - y40_42 - y40_51 - y21_47 - y10_19 - y39_55 - y20_60 - y25_26 - y32_43 - y13_39 - y13_48 - y24_48 - y43_61 - y24_57 - y17_27 - y36_40 - y47_49 - y17_45 - y6_8 - y36_58 - y9_41 - y5_52 - y17_54 - y5_61 - y29_37 - y6_44 - y10_14 - y39_59 - y20_55 - y31_55 - y54_57 - y23_51 - y12_60 - y3_11 - y43_56 - y16_39 - y24_52 - y35_52 - y16_57 - y36_44 - y9_27 - y17_49 - y6_12 - y9_45 - y5_56 - y9_54 - y50_55 - y42_51 - y39_45 - y2_5 - y20_41 - y31_41 - y2_14 - y2_23 - y32_33 - y24_29 - y1_36 - y24_38 - y16_34 - y1_45 - y13_47 - y16_43 - y13_56 - y16_52 - y46_53 - y9_40 - y19_53 - y8_62 - y19_62 - y11_58 - y20_36 - y12_32 - y23_32 - y2_9 - y31_54 - y12_50 - y4_46 - y23_59 - y13_24 - y53_60 - y16_20 - y32_46 - y1_40 - y13_42 - y9_17 - y49_53 - y27_34 - y19_39 - y50_54 - y27_61 - y0_44 - y42_59 - y0_53 - y12_18 - y20_31 - y4_23 - y39_53 - y20_49 - y31_49 - y12_45 - y20_58 - y1_26 - y13_28 - y4_59 - y13_37 - y24_37 - y1_44 - y16_42 - y7_60 - y8_25 - y27_38 - y19_34 - y30_34 - y27_47 - y11_48 - y19_61 - y60_62 - y11_57 - y12_22 - y31_35 - y4_18 - y12_31 - y12_49 - y13_14 - y23_49 - y45_46 - y1_21 - y13_23 - y45_55 - y1_30 - y37_51 - y16_28 - y37_60 - y46_56 - y38_52 - y15_59 - y18_55 - y19_20 - y27_33 - y0_25 - y8_38 - y19_38 - y27_51 - y8_47 - y11_43 - y30_56 - y0_52 - y12_17 - y52_53 - y41_62 - y4_31 - y1_16 - y22_48 - y1_25 - y34_59 - y37_55 - y3_62 - y26_27 - y18_32 - y15_45 - y38_56 - y49_56 - y7_50 - y0_11 - y7_59 - y8_24 - y48_60 - y8_33 - y30_33 - y20_25 - y60_61 - y25_49 - y44_62 - y1_2 - y4_35 - y15_31 - y38_42 - y7_36 - y18_45 - y8_10 - y0_6 - y18_54 - y8_19 - y11_15 - y8_28 - y0_24 - y21_56 - y0_33 - y0_42 - y41_43 - y12_16 - y44_48 - y41_61 - y25_44 - y44_57 - y25_53 - y22_29 - y14_34 - y7_22 - y7_31 - y26_44 - y7_40 - y19_23 - y6_53 - y29_55 - y21_51 - y11_28 - y33_43 - y33_52 - y10_59 - y22_24 - y33_61 - y25_57 - y44_61 - y22_33 - y34_44
 Subject to
C1: x0+x1 <=1 
C2: x0+x6-y0_6 <=1 
C3: x0+x7-y0_7 <=1 
C4: x0+x9-y0_9 <=1 
C5: x0+x10 <=1 
C6: x0+x11-y0_11 <=1 
C7: x0+x12 <=1 
C8: x0+x14 <=1 
C9: x0+x15 <=1 
C10: x0+x17 <=1 
C11: x0+x19 <=1 
C12: x0+x20 <=1 
C13: x0+x21 <=1 
C14: x0+x22-y0_22 <=1 
C15: x0+x23 <=1 
C16: x0+x24-y0_24 <=1 
C17: x0+x25-y0_25 <=1 
C18: x0+x26-y0_26 <=1 
C19: x0+x27-y0_27 <=1 
C20: x0+x28 <=1 
C21: x0+x32 <=1 
C22: x0+x33-y0_33 <=1 
C23: x0+x35 <=1 
C24: x0+x39 <=1 
C25: x0+x40 <=1 
C26: x0+x41-y0_41 <=1 
C27: x0+x42-y0_42 <=1 
C28: x0+x44-y0_44 <=1 
C29: x0+x45-y0_45 <=1 
C30: x0+x46 <=1 
C31: x0+x47 <=1 
C32: x0+x49 <=1 
C33: x0+x50-y0_50 <=1 
C34: x0+x52-y0_52 <=1 
C35: x0+x53-y0_53 <=1 
C36: x0+x55-y0_55 <=1 
C37: x0+x56 <=1 
C38: x0+x58 <=1 
C39: x0+x59-y0_59 <=1 
C40: x0+x60-y0_60 <=1 
C41: x0+x61 <=1 
C42: x0+x62 <=1 
C43: x1+x2-y1_2 <=1 
C44: x1+x3 <=1 
C45: x1+x4-y1_4 <=1 
C46: x1+x7 <=1 
C47: x1+x9 <=1 
C48: x1+x10-y1_10 <=1 
C49: x1+x12 <=1 
C50: x1+x14 <=1 
C51: x1+x15-y1_15 <=1 
C52: x1+x16-y1_16 <=1 
C53: x1+x18-y1_18 <=1 
C54: x1+x20 <=1 
C55: x1+x21-y1_21 <=1 
C56: x1+x23 <=1 
C57: x1+x24 <=1 
C58: x1+x25-y1_25 <=1 
C59: x1+x26-y1_26 <=1 
C60: x1+x28 <=1 
C61: x1+x29 <=1 
C62: x1+x30-y1_30 <=1 
C63: x1+x32-y1_32 <=1 
C64: x1+x34-y1_34 <=1 
C65: x1+x36-y1_36 <=1 
C66: x1+x37-y1_37 <=1 
C67: x1+x38-y1_38 <=1 
C68: x1+x39 <=1 
C69: x1+x40-y1_40 <=1 
C70: x1+x41 <=1 
C71: x1+x42 <=1 
C72: x1+x44-y1_44 <=1 
C73: x1+x45-y1_45 <=1 
C74: x1+x46-y1_46 <=1 
C75: x1+x47 <=1 
C76: x1+x50 <=1 
C77: x1+x52-y1_52 <=1 
C78: x1+x53 <=1 
C79: x1+x54 <=1 
C80: x1+x55 <=1 
C81: x1+x56-y1_56 <=1 
C82: x1+x57 <=1 
C83: x1+x59 <=1 
C84: x1+x60-y1_60 <=1 
C85: x1+x61 <=1 
C86: x1+x62-y1_62 <=1 
C87: x2+x5-y2_5 <=1 
C88: x2+x7 <=1 
C89: x2+x9-y2_9 <=1 
C90: x2+x10 <=1 
C91: x2+x13 <=1 
C92: x2+x14-y2_14 <=1 
C93: x2+x16-y2_16 <=1 
C94: x2+x17-y2_17 <=1 
C95: x2+x22 <=1 
C96: x2+x23-y2_23 <=1 
C97: x2+x24 <=1 
C98: x2+x25-y2_25 <=1 
C99: x2+x26-y2_26 <=1 
C100: x2+x29 <=1 
C101: x2+x31 <=1 
C102: x2+x34 <=1 
C103: x2+x38-y2_38 <=1 
C104: x2+x39-y2_39 <=1 
C105: x2+x40-y2_40 <=1 
C106: x2+x46 <=1 
C107: x2+x47 <=1 
C108: x2+x48-y2_48 <=1 
C109: x2+x52 <=1 
C110: x2+x57 <=1 
C111: x2+x58 <=1 
C112: x2+x59 <=1 
C113: x2+x62-y2_62 <=1 
C114: x3+x4 <=1 
C115: x3+x5 <=1 
C116: x3+x6 <=1 
C117: x3+x7 <=1 
C118: x3+x8-y3_8 <=1 
C119: x3+x10 <=1 
C120: x3+x11-y3_11 <=1 
C121: x3+x12-y3_12 <=1 
C122: x3+x13-y3_13 <=1 
C123: x3+x18-y3_18 <=1 
C124: x3+x21-y3_21 <=1 
C125: x3+x26 <=1 
C126: x3+x28 <=1 
C127: x3+x30 <=1 
C128: x3+x31-y3_31 <=1 
C129: x3+x32-y3_32 <=1 
C130: x3+x33-y3_33 <=1 
C131: x3+x35 <=1 
C132: x3+x37-y3_37 <=1 
C133: x3+x44-y3_44 <=1 
C134: x3+x45 <=1 
C135: x3+x50 <=1 
C136: x3+x51 <=1 
C137: x3+x52 <=1 
C138: x3+x53 <=1 
C139: x3+x57 <=1 
C140: x3+x59-y3_59 <=1 
C141: x3+x60 <=1 
C142: x3+x62-y3_62 <=1 
C143: x4+x5-y4_5 <=1 
C144: x4+x7 <=1 
C145: x4+x9 <=1 
C146: x4+x12 <=1 
C147: x4+x15-y4_15 <=1 
C148: x4+x17 <=1 
C149: x4+x18-y4_18 <=1 
C150: x4+x19-y4_19 <=1 
C151: x4+x23-y4_23 <=1 
C152: x4+x24 <=1 
C153: x4+x25-y4_25 <=1 
C154: x4+x26 <=1 
C155: x4+x27 <=1 
C156: x4+x31-y4_31 <=1 
C157: x4+x33 <=1 
C158: x4+x34-y4_34 <=1 
C159: x4+x35-y4_35 <=1 
C160: x4+x41 <=1 
C161: x4+x46-y4_46 <=1 
C162: x4+x48 <=1 
C163: x4+x49 <=1 
C164: x4+x50 <=1 
C165: x4+x52-y4_52 <=1 
C166: x4+x53-y4_53 <=1 
C167: x4+x54 <=1 
C168: x4+x58 <=1 
C169: x4+x59-y4_59 <=1 
C170: x4+x61-y4_61 <=1 
C171: x4+x62-y4_62 <=1 
C172: x5+x9 <=1 
C173: x5+x10 <=1 
C174: x5+x12-y5_12 <=1 
C175: x5+x17 <=1 
C176: x5+x19 <=1 
C177: x5+x20 <=1 
C178: x5+x22-y5_22 <=1 
C179: x5+x23 <=1 
C180: x5+x28 <=1 
C181: x5+x30-y5_30 <=1 
C182: x5+x36-y5_36 <=1 
C183: x5+x37 <=1 
C184: x5+x39-y5_39 <=1 
C185: x5+x40 <=1 
C186: x5+x42 <=1 
C187: x5+x45 <=1 
C188: x5+x46 <=1 
C189: x5+x49-y5_49 <=1 
C190: x5+x50-y5_50 <=1 
C191: x5+x52-y5_52 <=1 
C192: x5+x56-y5_56 <=1 
C193: x5+x59-y5_59 <=1 
C194: x5+x60-y5_60 <=1 
C195: x5+x61-y5_61 <=1 
C196: x5+x62 <=1 
C197: x6+x7 <=1 
C198: x6+x8-y6_8 <=1 
C199: x6+x11 <=1 
C200: x6+x12-y6_12 <=1 
C201: x6+x16 <=1 
C202: x6+x18 <=1 
C203: x6+x19 <=1 
C204: x6+x23-y6_23 <=1 
C205: x6+x24 <=1 
C206: x6+x27-y6_27 <=1 
C207: x6+x29 <=1 
C208: x6+x31-y6_31 <=1 
C209: x6+x33 <=1 
C210: x6+x34 <=1 
C211: x6+x35 <=1 
C212: x6+x36 <=1 
C213: x6+x37-y6_37 <=1 
C214: x6+x38 <=1 
C215: x6+x39 <=1 
C216: x6+x40 <=1 
C217: x6+x42-y6_42 <=1 
C218: x6+x43-y6_43 <=1 
C219: x6+x44-y6_44 <=1 
C220: x6+x48 <=1 
C221: x6+x50-y6_50 <=1 
C222: x6+x51 <=1 
C223: x6+x52 <=1 
C224: x6+x53-y6_53 <=1 
C225: x6+x54-y6_54 <=1 
C226: x6+x56 <=1 
C227: x6+x60 <=1 
C228: x6+x62 <=1 
C229: x7+x9-y7_9 <=1 
C230: x7+x10 <=1 
C231: x7+x11-y7_11 <=1 
C232: x7+x12 <=1 
C233: x7+x15-y7_15 <=1 
C234: x7+x18 <=1 
C235: x7+x20 <=1 
C236: x7+x22-y7_22 <=1 
C237: x7+x24 <=1 
C238: x7+x25-y7_25 <=1 
C239: x7+x27 <=1 
C240: x7+x30-y7_30 <=1 
C241: x7+x31-y7_31 <=1 
C242: x7+x34 <=1 
C243: x7+x35-y7_35 <=1 
C244: x7+x36-y7_36 <=1 
C245: x7+x38 <=1 
C246: x7+x40-y7_40 <=1 
C247: x7+x41 <=1 
C248: x7+x42 <=1 
C249: x7+x43 <=1 
C250: x7+x44 <=1 
C251: x7+x47 <=1 
C252: x7+x50-y7_50 <=1 
C253: x7+x53-y7_53 <=1 
C254: x7+x54 <=1 
C255: x7+x58 <=1 
C256: x7+x59-y7_59 <=1 
C257: x7+x60-y7_60 <=1 
C258: x8+x9 <=1 
C259: x8+x10-y8_10 <=1 
C260: x8+x13 <=1 
C261: x8+x14 <=1 
C262: x8+x17-y8_17 <=1 
C263: x8+x19-y8_19 <=1 
C264: x8+x20 <=1 
C265: x8+x21 <=1 
C266: x8+x22 <=1 
C267: x8+x24-y8_24 <=1 
C268: x8+x25-y8_25 <=1 
C269: x8+x27-y8_27 <=1 
C270: x8+x28-y8_28 <=1 
C271: x8+x30 <=1 
C272: x8+x31-y8_31 <=1 
C273: x8+x32 <=1 
C274: x8+x33-y8_33 <=1 
C275: x8+x36-y8_36 <=1 
C276: x8+x38-y8_38 <=1 
C277: x8+x40-y8_40 <=1 
C278: x8+x41-y8_41 <=1 
C279: x8+x42 <=1 
C280: x8+x44 <=1 
C281: x8+x47-y8_47 <=1 
C282: x8+x49 <=1 
C283: x8+x54 <=1 
C284: x8+x55 <=1 
C285: x8+x56 <=1 
C286: x8+x58 <=1 
C287: x8+x59 <=1 
C288: x8+x60 <=1 
C289: x8+x62-y8_62 <=1 
C290: x9+x11-y9_11 <=1 
C291: x9+x14 <=1 
C292: x9+x15-y9_15 <=1 
C293: x9+x17-y9_17 <=1 
C294: x9+x18 <=1 
C295: x9+x20 <=1 
C296: x9+x23 <=1 
C297: x9+x26 <=1 
C298: x9+x27-y9_27 <=1 
C299: x9+x28-y9_28 <=1 
C300: x9+x31 <=1 
C301: x9+x32 <=1 
C302: x9+x37-y9_37 <=1 
C303: x9+x39-y9_39 <=1 
C304: x9+x40-y9_40 <=1 
C305: x9+x41-y9_41 <=1 
C306: x9+x42 <=1 
C307: x9+x45-y9_45 <=1 
C308: x9+x47 <=1 
C309: x9+x48-y9_48 <=1 
C310: x9+x49-y9_49 <=1 
C311: x9+x51-y9_51 <=1 
C312: x9+x52-y9_52 <=1 
C313: x9+x54-y9_54 <=1 
C314: x9+x55-y9_55 <=1 
C315: x9+x57-y9_57 <=1 
C316: x9+x58-y9_58 <=1 
C317: x9+x59 <=1 
C318: x9+x60 <=1 
C319: x9+x61 <=1 
C320: x9+x62-y9_62 <=1 
C321: x10+x12 <=1 
C322: x10+x13 <=1 
C323: x10+x14-y10_14 <=1 
C324: x10+x15 <=1 
C325: x10+x16-y10_16 <=1 
C326: x10+x17 <=1 
C327: x10+x18 <=1 
C328: x10+x19-y10_19 <=1 
C329: x10+x21-y10_21 <=1 
C330: x10+x24 <=1 
C331: x10+x27-y10_27 <=1 
C332: x10+x28 <=1 
C333: x10+x29-y10_29 <=1 
C334: x10+x30-y10_30 <=1 
C335: x10+x33 <=1 
C336: x10+x34 <=1 
C337: x10+x35 <=1 
C338: x10+x40 <=1 
C339: x10+x42-y10_42 <=1 
C340: x10+x47-y10_47 <=1 
C341: x10+x49-y10_49 <=1 
C342: x10+x51-y10_51 <=1 
C343: x10+x52 <=1 
C344: x10+x53-y10_53 <=1 
C345: x10+x56 <=1 
C346: x10+x59-y10_59 <=1 
C347: x10+x60 <=1 
C348: x10+x62-y10_62 <=1 
C349: x11+x12-y11_12 <=1 
C350: x11+x13 <=1 
C351: x11+x14 <=1 
C352: x11+x15-y11_15 <=1 
C353: x11+x16-y11_16 <=1 
C354: x11+x19 <=1 
C355: x11+x22-y11_22 <=1 
C356: x11+x27 <=1 
C357: x11+x28-y11_28 <=1 
C358: x11+x33 <=1 
C359: x11+x34 <=1 
C360: x11+x35-y11_35 <=1 
C361: x11+x36-y11_36 <=1 
C362: x11+x39 <=1 
C363: x11+x40 <=1 
C364: x11+x41 <=1 
C365: x11+x43-y11_43 <=1 
C366: x11+x48-y11_48 <=1 
C367: x11+x51-y11_51 <=1 
C368: x11+x52 <=1 
C369: x11+x55 <=1 
C370: x11+x56 <=1 
C371: x11+x57-y11_57 <=1 
C372: x11+x58-y11_58 <=1 
C373: x12+x14-y12_14 <=1 
C374: x12+x15-y12_15 <=1 
C375: x12+x16-y12_16 <=1 
C376: x12+x17-y12_17 <=1 
C377: x12+x18-y12_18 <=1 
C378: x12+x19-y12_19 <=1 
C379: x12+x20-y12_20 <=1 
C380: x12+x21 <=1 
C381: x12+x22-y12_22 <=1 
C382: x12+x24 <=1 
C383: x12+x25-y12_25 <=1 
C384: x12+x26 <=1 
C385: x12+x31-y12_31 <=1 
C386: x12+x32-y12_32 <=1 
C387: x12+x33 <=1 
C388: x12+x34-y12_34 <=1 
C389: x12+x36 <=1 
C390: x12+x38 <=1 
C391: x12+x40 <=1 
C392: x12+x43 <=1 
C393: x12+x44 <=1 
C394: x12+x45-y12_45 <=1 
C395: x12+x46 <=1 
C396: x12+x47-y12_47 <=1 
C397: x12+x48 <=1 
C398: x12+x49-y12_49 <=1 
C399: x12+x50-y12_50 <=1 
C400: x12+x51 <=1 
C401: x12+x53 <=1 
C402: x12+x54 <=1 
C403: x12+x57-y12_57 <=1 
C404: x12+x58 <=1 
C405: x12+x60-y12_60 <=1 
C406: x12+x62 <=1 
C407: x13+x14-y13_14 <=1 
C408: x13+x17-y13_17 <=1 
C409: x13+x18 <=1 
C410: x13+x22-y13_22 <=1 
C411: x13+x23-y13_23 <=1 
C412: x13+x24-y13_24 <=1 
C413: x13+x27 <=1 
C414: x13+x28-y13_28 <=1 
C415: x13+x32 <=1 
C416: x13+x35-y13_35 <=1 
C417: x13+x37-y13_37 <=1 
C418: x13+x39-y13_39 <=1 
C419: x13+x42-y13_42 <=1 
C420: x13+x43 <=1 
C421: x13+x45 <=1 
C422: x13+x46 <=1 
C423: x13+x47-y13_47 <=1 
C424: x13+x48-y13_48 <=1 
C425: x13+x49-y13_49 <=1 
C426: x13+x52 <=1 
C427: x13+x53-y13_53 <=1 
C428: x13+x54-y13_54 <=1 
C429: x13+x56-y13_56 <=1 
C430: x13+x57 <=1 
C431: x13+x58-y13_58 <=1 
C432: x13+x59-y13_59 <=1 
C433: x13+x60-y13_60 <=1 
C434: x13+x61 <=1 
C435: x14+x17 <=1 
C436: x14+x18 <=1 
C437: x14+x20 <=1 
C438: x14+x21 <=1 
C439: x14+x23-y14_23 <=1 
C440: x14+x26 <=1 
C441: x14+x27 <=1 
C442: x14+x28 <=1 
C443: x14+x29 <=1 
C444: x14+x30 <=1 
C445: x14+x31 <=1 
C446: x14+x33-y14_33 <=1 
C447: x14+x34-y14_34 <=1 
C448: x14+x38 <=1 
C449: x14+x39 <=1 
C450: x14+x40-y14_40 <=1 
C451: x14+x41 <=1 
C452: x14+x44-y14_44 <=1 
C453: x14+x46 <=1 
C454: x14+x47 <=1 
C455: x14+x51-y14_51 <=1 
C456: x14+x52 <=1 
C457: x14+x54-y14_54 <=1 
C458: x14+x58 <=1 
C459: x14+x59 <=1 
C460: x15+x18 <=1 
C461: x15+x19 <=1 
C462: x15+x20-y15_20 <=1 
C463: x15+x21 <=1 
C464: x15+x24-y15_24 <=1 
C465: x15+x26 <=1 
C466: x15+x27 <=1 
C467: x15+x29-y15_29 <=1 
C468: x15+x30-y15_30 <=1 
C469: x15+x31-y15_31 <=1 
C470: x15+x32 <=1 
C471: x15+x34-y15_34 <=1 
C472: x15+x35 <=1 
C473: x15+x36 <=1 
C474: x15+x38 <=1 
C475: x15+x39-y15_39 <=1 
C476: x15+x41 <=1 
C477: x15+x44 <=1 
C478: x15+x45-y15_45 <=1 
C479: x15+x48-y15_48 <=1 
C480: x15+x49 <=1 
C481: x15+x52-y15_52 <=1 
C482: x15+x53-y15_53 <=1 
C483: x15+x54 <=1 
C484: x15+x55 <=1 
C485: x15+x56-y15_56 <=1 
C486: x15+x57 <=1 
C487: x15+x58 <=1 
C488: x15+x59-y15_59 <=1 
C489: x15+x60 <=1 
C490: x15+x62-y15_62 <=1 
C491: x16+x18 <=1 
C492: x16+x20-y16_20 <=1 
C493: x16+x22-y16_22 <=1 
C494: x16+x24 <=1 
C495: x16+x25 <=1 
C496: x16+x26 <=1 
C497: x16+x28-y16_28 <=1 
C498: x16+x30-y16_30 <=1 
C499: x16+x31-y16_31 <=1 
C500: x16+x34-y16_34 <=1 
C501: x16+x39-y16_39 <=1 
C502: x16+x41 <=1 
C503: x16+x42-y16_42 <=1 
C504: x16+x43-y16_43 <=1 
C505: x16+x45 <=1 
C506: x16+x49 <=1 
C507: x16+x51-y16_51 <=1 
C508: x16+x52-y16_52 <=1 
C509: x16+x54-y16_54 <=1 
C510: x16+x55-y16_55 <=1 
C511: x16+x56 <=1 
C512: x16+x57-y16_57 <=1 
C513: x16+x59 <=1 
C514: x16+x61 <=1 
C515: x17+x18 <=1 
C516: x17+x19 <=1 
C517: x17+x20 <=1 
C518: x17+x21 <=1 
C519: x17+x24-y17_24 <=1 
C520: x17+x26 <=1 
C521: x17+x27-y17_27 <=1 
C522: x17+x28-y17_28 <=1 
C523: x17+x29-y17_29 <=1 
C524: x17+x30 <=1 
C525: x17+x33 <=1 
C526: x17+x34-y17_34 <=1 
C527: x17+x36 <=1 
C528: x17+x37-y17_37 <=1 
C529: x17+x38-y17_38 <=1 
C530: x17+x41-y17_41 <=1 
C531: x17+x42 <=1 
C532: x17+x43 <=1 
C533: x17+x44 <=1 
C534: x17+x45-y17_45 <=1 
C535: x17+x46 <=1 
C536: x17+x47-y17_47 <=1 
C537: x17+x48-y17_48 <=1 
C538: x17+x49-y17_49 <=1 
C539: x17+x50-y17_50 <=1 
C540: x17+x52 <=1 
C541: x17+x53 <=1 
C542: x17+x54-y17_54 <=1 
C543: x17+x55 <=1 
C544: x17+x56-y17_56 <=1 
C545: x17+x58 <=1 
C546: x17+x59-y17_59 <=1 
C547: x17+x60 <=1 
C548: x17+x61 <=1 
C549: x17+x62-y17_62 <=1 
C550: x18+x19 <=1 
C551: x18+x20-y18_20 <=1 
C552: x18+x22 <=1 
C553: x18+x23 <=1 
C554: x18+x25 <=1 
C555: x18+x26 <=1 
C556: x18+x31 <=1 
C557: x18+x32-y18_32 <=1 
C558: x18+x33-y18_33 <=1 
C559: x18+x34 <=1 
C560: x18+x37 <=1 
C561: x18+x38-y18_38 <=1 
C562: x18+x44 <=1 
C563: x18+x45-y18_45 <=1 
C564: x18+x47 <=1 
C565: x18+x48-y18_48 <=1 
C566: x18+x49 <=1 
C567: x18+x51 <=1 
C568: x18+x53 <=1 
C569: x18+x54-y18_54 <=1 
C570: x18+x55-y18_55 <=1 
C571: x18+x57-y18_57 <=1 
C572: x18+x60 <=1 
C573: x18+x61-y18_61 <=1 
C574: x18+x62 <=1 
C575: x19+x20-y19_20 <=1 
C576: x19+x21-y19_21 <=1 
C577: x19+x22 <=1 
C578: x19+x23-y19_23 <=1 
C579: x19+x26-y19_26 <=1 
C580: x19+x27-y19_27 <=1 
C581: x19+x29 <=1 
C582: x19+x30-y19_30 <=1 
C583: x19+x32-y19_32 <=1 
C584: x19+x34-y19_34 <=1 
C585: x19+x36-y19_36 <=1 
C586: x19+x38-y19_38 <=1 
C587: x19+x39-y19_39 <=1 
C588: x19+x43 <=1 
C589: x19+x44 <=1 
C590: x19+x45 <=1 
C591: x19+x46 <=1 
C592: x19+x48 <=1 
C593: x19+x51 <=1 
C594: x19+x53-y19_53 <=1 
C595: x19+x54 <=1 
C596: x19+x57 <=1 
C597: x19+x59 <=1 
C598: x19+x60-y19_60 <=1 
C599: x19+x61-y19_61 <=1 
C600: x19+x62-y19_62 <=1 
C601: x20+x22 <=1 
C602: x20+x24 <=1 
C603: x20+x25-y20_25 <=1 
C604: x20+x26 <=1 
C605: x20+x27 <=1 
C606: x20+x28-y20_28 <=1 
C607: x20+x29 <=1 
C608: x20+x30 <=1 
C609: x20+x31-y20_31 <=1 
C610: x20+x34 <=1 
C611: x20+x35 <=1 
C612: x20+x36-y20_36 <=1 
C613: x20+x38 <=1 
C614: x20+x39-y20_39 <=1 
C615: x20+x41-y20_41 <=1 
C616: x20+x42-y20_42 <=1 
C617: x20+x43 <=1 
C618: x20+x44 <=1 
C619: x20+x45 <=1 
C620: x20+x47 <=1 
C621: x20+x48-y20_48 <=1 
C622: x20+x49-y20_49 <=1 
C623: x20+x50 <=1 
C624: x20+x51-y20_51 <=1 
C625: x20+x52 <=1 
C626: x20+x55-y20_55 <=1 
C627: x20+x56-y20_56 <=1 
C628: x20+x57-y20_57 <=1 
C629: x20+x58-y20_58 <=1 
C630: x20+x59 <=1 
C631: x20+x60-y20_60 <=1 
C632: x20+x61-y20_61 <=1 
C633: x20+x62 <=1 
C634: x21+x22 <=1 
C635: x21+x23 <=1 
C636: x21+x24 <=1 
C637: x21+x25 <=1 
C638: x21+x26 <=1 
C639: x21+x27-y21_27 <=1 
C640: x21+x29-y21_29 <=1 
C641: x21+x31 <=1 
C642: x21+x32-y21_32 <=1 
C643: x21+x37 <=1 
C644: x21+x39-y21_39 <=1 
C645: x21+x40-y21_40 <=1 
C646: x21+x41-y21_41 <=1 
C647: x21+x42 <=1 
C648: x21+x43-y21_43 <=1 
C649: x21+x44-y21_44 <=1 
C650: x21+x45 <=1 
C651: x21+x46 <=1 
C652: x21+x47-y21_47 <=1 
C653: x21+x48 <=1 
C654: x21+x49-y21_49 <=1 
C655: x21+x50 <=1 
C656: x21+x51-y21_51 <=1 
C657: x21+x53 <=1 
C658: x21+x54 <=1 
C659: x21+x55 <=1 
C660: x21+x56-y21_56 <=1 
C661: x21+x57-y21_57 <=1 
C662: x21+x58-y21_58 <=1 
C663: x21+x61-y21_61 <=1 
C664: x21+x62-y21_62 <=1 
C665: x22+x24-y22_24 <=1 
C666: x22+x25-y22_25 <=1 
C667: x22+x27 <=1 
C668: x22+x28-y22_28 <=1 
C669: x22+x29-y22_29 <=1 
C670: x22+x31 <=1 
C671: x22+x32-y22_32 <=1 
C672: x22+x33-y22_33 <=1 
C673: x22+x36 <=1 
C674: x22+x37 <=1 
C675: x22+x38 <=1 
C676: x22+x39-y22_39 <=1 
C677: x22+x41 <=1 
C678: x22+x42 <=1 
C679: x22+x44-y22_44 <=1 
C680: x22+x45-y22_45 <=1 
C681: x22+x47 <=1 
C682: x22+x48-y22_48 <=1 
C683: x22+x49-y22_49 <=1 
C684: x22+x50 <=1 
C685: x22+x51 <=1 
C686: x22+x52 <=1 
C687: x22+x53 <=1 
C688: x22+x55-y22_55 <=1 
C689: x22+x57 <=1 
C690: x22+x58-y22_58 <=1 
C691: x22+x59 <=1 
C692: x22+x60-y22_60 <=1 
C693: x22+x62 <=1 
C694: x23+x32-y23_32 <=1 
C695: x23+x33 <=1 
C696: x23+x34-y23_34 <=1 
C697: x23+x41 <=1 
C698: x23+x44 <=1 
C699: x23+x45 <=1 
C700: x23+x47 <=1 
C701: x23+x49-y23_49 <=1 
C702: x23+x51-y23_51 <=1 
C703: x23+x53 <=1 
C704: x23+x54 <=1 
C705: x23+x57-y23_57 <=1 
C706: x23+x58 <=1 
C707: x23+x59-y23_59 <=1 
C708: x23+x62 <=1 
C709: x24+x28 <=1 
C710: x24+x29-y24_29 <=1 
C711: x24+x30-y24_30 <=1 
C712: x24+x31-y24_31 <=1 
C713: x24+x32 <=1 
C714: x24+x34 <=1 
C715: x24+x36 <=1 
C716: x24+x37-y24_37 <=1 
C717: x24+x38-y24_38 <=1 
C718: x24+x41-y24_41 <=1 
C719: x24+x43 <=1 
C720: x24+x44 <=1 
C721: x24+x48-y24_48 <=1 
C722: x24+x50 <=1 
C723: x24+x52-y24_52 <=1 
C724: x24+x53-y24_53 <=1 
C725: x24+x54-y24_54 <=1 
C726: x24+x56 <=1 
C727: x24+x57-y24_57 <=1 
C728: x24+x59 <=1 
C729: x24+x61 <=1 
C730: x24+x62 <=1 
C731: x25+x26-y25_26 <=1 
C732: x25+x27 <=1 
C733: x25+x32-y25_32 <=1 
C734: x25+x33-y25_33 <=1 
C735: x25+x36 <=1 
C736: x25+x37 <=1 
C737: x25+x38-y25_38 <=1 
C738: x25+x39 <=1 
C739: x25+x40 <=1 
C740: x25+x41 <=1 
C741: x25+x43-y25_43 <=1 
C742: x25+x44-y25_44 <=1 
C743: x25+x45 <=1 
C744: x25+x46-y25_46 <=1 
C745: x25+x47-y25_47 <=1 
C746: x25+x49-y25_49 <=1 
C747: x25+x50 <=1 
C748: x25+x53-y25_53 <=1 
C749: x25+x54 <=1 
C750: x25+x55-y25_55 <=1 
C751: x25+x56 <=1 
C752: x25+x57-y25_57 <=1 
C753: x25+x59-y25_59 <=1 
C754: x25+x60-y25_60 <=1 
C755: x26+x27-y26_27 <=1 
C756: x26+x28-y26_28 <=1 
C757: x26+x31 <=1 
C758: x26+x34 <=1 
C759: x26+x36 <=1 
C760: x26+x37-y26_37 <=1 
C761: x26+x38 <=1 
C762: x26+x42 <=1 
C763: x26+x43-y26_43 <=1 
C764: x26+x44-y26_44 <=1 
C765: x26+x45 <=1 
C766: x26+x46 <=1 
C767: x26+x48-y26_48 <=1 
C768: x26+x49 <=1 
C769: x26+x51-y26_51 <=1 
C770: x26+x53 <=1 
C771: x26+x54 <=1 
C772: x26+x57-y26_57 <=1 
C773: x26+x58 <=1 
C774: x26+x59 <=1 
C775: x26+x61-y26_61 <=1 
C776: x27+x30 <=1 
C777: x27+x31 <=1 
C778: x27+x33-y27_33 <=1 
C779: x27+x34-y27_34 <=1 
C780: x27+x35 <=1 
C781: x27+x36-y27_36 <=1 
C782: x27+x38-y27_38 <=1 
C783: x27+x39 <=1 
C784: x27+x40-y27_40 <=1 
C785: x27+x41-y27_41 <=1 
C786: x27+x42 <=1 
C787: x27+x44 <=1 
C788: x27+x45-y27_45 <=1 
C789: x27+x46 <=1 
C790: x27+x47-y27_47 <=1 
C791: x27+x48 <=1 
C792: x27+x49 <=1 
C793: x27+x51-y27_51 <=1 
C794: x27+x53 <=1 
C795: x27+x55 <=1 
C796: x27+x56 <=1 
C797: x27+x60-y27_60 <=1 
C798: x27+x61-y27_61 <=1 
C799: x27+x62 <=1 
C800: x28+x29 <=1 
C801: x28+x30 <=1 
C802: x28+x32-y28_32 <=1 
C803: x28+x33 <=1 
C804: x28+x34 <=1 
C805: x28+x35 <=1 
C806: x28+x38-y28_38 <=1 
C807: x28+x41-y28_41 <=1 
C808: x28+x43-y28_43 <=1 
C809: x28+x46 <=1 
C810: x28+x47-y28_47 <=1 
C811: x28+x48-y28_48 <=1 
C812: x28+x50-y28_50 <=1 
C813: x28+x51-y28_51 <=1 
C814: x28+x52 <=1 
C815: x28+x56-y28_56 <=1 
C816: x28+x58-y28_58 <=1 
C817: x28+x59-y28_59 <=1 
C818: x28+x60 <=1 
C819: x28+x62-y28_62 <=1 
C820: x29+x30 <=1 
C821: x29+x31 <=1 
C822: x29+x35 <=1 
C823: x29+x37-y29_37 <=1 
C824: x29+x39-y29_39 <=1 
C825: x29+x41-y29_41 <=1 
C826: x29+x44 <=1 
C827: x29+x47-y29_47 <=1 
C828: x29+x50-y29_50 <=1 
C829: x29+x51 <=1 
C830: x29+x53-y29_53 <=1 
C831: x29+x55-y29_55 <=1 
C832: x29+x57-y29_57 <=1 
C833: x29+x58-y29_58 <=1 
C834: x29+x59-y29_59 <=1 
C835: x30+x33-y30_33 <=1 
C836: x30+x34-y30_34 <=1 
C837: x30+x36-y30_36 <=1 
C838: x30+x39 <=1 
C839: x30+x40 <=1 
C840: x30+x42 <=1 
C841: x30+x44-y30_44 <=1 
C842: x30+x46 <=1 
C843: x30+x48 <=1 
C844: x30+x49-y30_49 <=1 
C845: x30+x51 <=1 
C846: x30+x52 <=1 
C847: x30+x55 <=1 
C848: x30+x56-y30_56 <=1 
C849: x31+x34-y31_34 <=1 
C850: x31+x35-y31_35 <=1 
C851: x31+x36 <=1 
C852: x31+x38-y31_38 <=1 
C853: x31+x39 <=1 
C854: x31+x40 <=1 
C855: x31+x41-y31_41 <=1 
C856: x31+x43-y31_43 <=1 
C857: x31+x47-y31_47 <=1 
C858: x31+x49-y31_49 <=1 
C859: x31+x50 <=1 
C860: x31+x52 <=1 
C861: x31+x53 <=1 
C862: x31+x54-y31_54 <=1 
C863: x31+x55-y31_55 <=1 
C864: x31+x59 <=1 
C865: x32+x33-y32_33 <=1 
C866: x32+x35-y32_35 <=1 
C867: x32+x36-y32_36 <=1 
C868: x32+x38 <=1 
C869: x32+x40 <=1 
C870: x32+x41-y32_41 <=1 
C871: x32+x43-y32_43 <=1 
C872: x32+x44 <=1 
C873: x32+x46-y32_46 <=1 
C874: x32+x50 <=1 
C875: x32+x53 <=1 
C876: x32+x54-y32_54 <=1 
C877: x32+x55 <=1 
C878: x32+x57 <=1 
C879: x32+x59 <=1 
C880: x32+x60 <=1 
C881: x32+x61 <=1 
C882: x33+x37 <=1 
C883: x33+x38 <=1 
C884: x33+x40 <=1 
C885: x33+x42 <=1 
C886: x33+x43-y33_43 <=1 
C887: x33+x46 <=1 
C888: x33+x49-y33_49 <=1 
C889: x33+x51-y33_51 <=1 
C890: x33+x52-y33_52 <=1 
C891: x33+x54-y33_54 <=1 
C892: x33+x55-y33_55 <=1 
C893: x33+x58 <=1 
C894: x33+x59-y33_59 <=1 
C895: x33+x60-y33_60 <=1 
C896: x33+x61-y33_61 <=1 
C897: x33+x62 <=1 
C898: x34+x37 <=1 
C899: x34+x38-y34_38 <=1 
C900: x34+x41 <=1 
C901: x34+x42 <=1 
C902: x34+x44-y34_44 <=1 
C903: x34+x45 <=1 
C904: x34+x48 <=1 
C905: x34+x49 <=1 
C906: x34+x50 <=1 
C907: x34+x51-y34_51 <=1 
C908: x34+x53-y34_53 <=1 
C909: x34+x56-y34_56 <=1 
C910: x34+x57 <=1 
C911: x34+x58-y34_58 <=1 
C912: x34+x59-y34_59 <=1 
C913: x34+x60 <=1 
C914: x34+x61-y34_61 <=1 
C915: x34+x62-y34_62 <=1 
C916: x35+x38 <=1 
C917: x35+x40 <=1 
C918: x35+x41 <=1 
C919: x35+x44-y35_44 <=1 
C920: x35+x45-y35_45 <=1 
C921: x35+x46-y35_46 <=1 
C922: x35+x48 <=1 
C923: x35+x49-y35_49 <=1 
C924: x35+x52-y35_52 <=1 
C925: x35+x54-y35_54 <=1 
C926: x35+x55-y35_55 <=1 
C927: x35+x58 <=1 
C928: x35+x59 <=1 
C929: x35+x60 <=1 
C930: x35+x62-y35_62 <=1 
C931: x36+x37 <=1 
C932: x36+x38 <=1 
C933: x36+x40-y36_40 <=1 
C934: x36+x41-y36_41 <=1 
C935: x36+x42 <=1 
C936: x36+x44-y36_44 <=1 
C937: x36+x45-y36_45 <=1 
C938: x36+x46-y36_46 <=1 
C939: x36+x47-y36_47 <=1 
C940: x36+x49 <=1 
C941: x36+x50-y36_50 <=1 
C942: x36+x51 <=1 
C943: x36+x52-y36_52 <=1 
C944: x36+x54 <=1 
C945: x36+x57 <=1 
C946: x36+x58-y36_58 <=1 
C947: x36+x59-y36_59 <=1 
C948: x36+x60 <=1 
C949: x36+x61-y36_61 <=1 
C950: x36+x62 <=1 
C951: x37+x38-y37_38 <=1 
C952: x37+x39 <=1 
C953: x37+x40 <=1 
C954: x37+x42-y37_42 <=1 
C955: x37+x44-y37_44 <=1 
C956: x37+x47-y37_47 <=1 
C957: x37+x51-y37_51 <=1 
C958: x37+x53 <=1 
C959: x37+x55-y37_55 <=1 
C960: x37+x56-y37_56 <=1 
C961: x37+x60-y37_60 <=1 
C962: x37+x61 <=1 
C963: x37+x62 <=1 
C964: x38+x39 <=1 
C965: x38+x40-y38_40 <=1 
C966: x38+x41-y38_41 <=1 
C967: x38+x42-y38_42 <=1 
C968: x38+x44 <=1 
C969: x38+x45-y38_45 <=1 
C970: x38+x47 <=1 
C971: x38+x49-y38_49 <=1 
C972: x38+x52-y38_52 <=1 
C973: x38+x56-y38_56 <=1 
C974: x38+x58 <=1 
C975: x38+x60-y38_60 <=1 
C976: x39+x40 <=1 
C977: x39+x41-y39_41 <=1 
C978: x39+x42-y39_42 <=1 
C979: x39+x44 <=1 
C980: x39+x45-y39_45 <=1 
C981: x39+x47-y39_47 <=1 
C982: x39+x49 <=1 
C983: x39+x51 <=1 
C984: x39+x52-y39_52 <=1 
C985: x39+x53-y39_53 <=1 
C986: x39+x55-y39_55 <=1 
C987: x39+x57-y39_57 <=1 
C988: x39+x58 <=1 
C989: x39+x59-y39_59 <=1 
C990: x39+x61-y39_61 <=1 
C991: x40+x42-y40_42 <=1 
C992: x40+x43 <=1 
C993: x40+x44-y40_44 <=1 
C994: x40+x46 <=1 
C995: x40+x47 <=1 
C996: x40+x48-y40_48 <=1 
C997: x40+x50-y40_50 <=1 
C998: x40+x51-y40_51 <=1 
C999: x40+x52-y40_52 <=1 
C1000: x40+x53 <=1 
C1001: x40+x54 <=1 
C1002: x40+x56-y40_56 <=1 
C1003: x40+x58-y40_58 <=1 
C1004: x41+x42-y41_42 <=1 
C1005: x41+x43-y41_43 <=1 
C1006: x41+x44-y41_44 <=1 
C1007: x41+x50-y41_50 <=1 
C1008: x41+x51-y41_51 <=1 
C1009: x41+x55 <=1 
C1010: x41+x60-y41_60 <=1 
C1011: x41+x61-y41_61 <=1 
C1012: x41+x62-y41_62 <=1 
C1013: x42+x43-y42_43 <=1 
C1014: x42+x44-y42_44 <=1 
C1015: x42+x45 <=1 
C1016: x42+x47 <=1 
C1017: x42+x50 <=1 
C1018: x42+x51-y42_51 <=1 
C1019: x42+x52 <=1 
C1020: x42+x53-y42_53 <=1 
C1021: x42+x56 <=1 
C1022: x42+x58 <=1 
C1023: x42+x59-y42_59 <=1 
C1024: x42+x60 <=1 
C1025: x42+x61-y42_61 <=1 
C1026: x42+x62-y42_62 <=1 
C1027: x43+x46 <=1 
C1028: x43+x48 <=1 
C1029: x43+x49 <=1 
C1030: x43+x50-y43_50 <=1 
C1031: x43+x51 <=1 
C1032: x43+x53 <=1 
C1033: x43+x56-y43_56 <=1 
C1034: x43+x57 <=1 
C1035: x43+x59-y43_59 <=1 
C1036: x43+x61-y43_61 <=1 
C1037: x44+x47-y44_47 <=1 
C1038: x44+x48-y44_48 <=1 
C1039: x44+x50-y44_50 <=1 
C1040: x44+x51-y44_51 <=1 
C1041: x44+x53 <=1 
C1042: x44+x54 <=1 
C1043: x44+x55 <=1 
C1044: x44+x56 <=1 
C1045: x44+x57-y44_57 <=1 
C1046: x44+x59 <=1 
C1047: x44+x60-y44_60 <=1 
C1048: x44+x61-y44_61 <=1 
C1049: x44+x62-y44_62 <=1 
C1050: x45+x46-y45_46 <=1 
C1051: x45+x47 <=1 
C1052: x45+x48 <=1 
C1053: x45+x49 <=1 
C1054: x45+x50 <=1 
C1055: x45+x51 <=1 
C1056: x45+x52 <=1 
C1057: x45+x53 <=1 
C1058: x45+x54 <=1 
C1059: x45+x55-y45_55 <=1 
C1060: x45+x58 <=1 
C1061: x45+x60 <=1 
C1062: x46+x49-y46_49 <=1 
C1063: x46+x50-y46_50 <=1 
C1064: x46+x51 <=1 
C1065: x46+x53-y46_53 <=1 
C1066: x46+x54 <=1 
C1067: x46+x55-y46_55 <=1 
C1068: x46+x56-y46_56 <=1 
C1069: x46+x58-y46_58 <=1 
C1070: x46+x62 <=1 
C1071: x47+x48 <=1 
C1072: x47+x49-y47_49 <=1 
C1073: x47+x51 <=1 
C1074: x47+x53 <=1 
C1075: x47+x54 <=1 
C1076: x47+x57-y47_57 <=1 
C1077: x47+x61-y47_61 <=1 
C1078: x48+x50 <=1 
C1079: x48+x51-y48_51 <=1 
C1080: x48+x52 <=1 
C1081: x48+x53-y48_53 <=1 
C1082: x48+x54-y48_54 <=1 
C1083: x48+x56-y48_56 <=1 
C1084: x48+x57-y48_57 <=1 
C1085: x48+x58-y48_58 <=1 
C1086: x48+x60-y48_60 <=1 
C1087: x48+x61 <=1 
C1088: x48+x62 <=1 
C1089: x49+x50 <=1 
C1090: x49+x51-y49_51 <=1 
C1091: x49+x52 <=1 
C1092: x49+x53-y49_53 <=1 
C1093: x49+x54 <=1 
C1094: x49+x55 <=1 
C1095: x49+x56-y49_56 <=1 
C1096: x49+x58 <=1 
C1097: x49+x59-y49_59 <=1 
C1098: x49+x60-y49_60 <=1 
C1099: x49+x62 <=1 
C1100: x50+x51 <=1 
C1101: x50+x54-y50_54 <=1 
C1102: x50+x55-y50_55 <=1 
C1103: x50+x56-y50_56 <=1 
C1104: x50+x57-y50_57 <=1 
C1105: x50+x61 <=1 
C1106: x50+x62 <=1 
C1107: x51+x52 <=1 
C1108: x51+x53 <=1 
C1109: x51+x54 <=1 
C1110: x51+x58-y51_58 <=1 
C1111: x51+x59 <=1 
C1112: x51+x61-y51_61 <=1 
C1113: x52+x53-y52_53 <=1 
C1114: x52+x55 <=1 
C1115: x52+x59 <=1 
C1116: x52+x60 <=1 
C1117: x52+x61 <=1 
C1118: x53+x54 <=1 
C1119: x53+x55 <=1 
C1120: x53+x56 <=1 
C1121: x53+x57-y53_57 <=1 
C1122: x53+x59 <=1 
C1123: x53+x60-y53_60 <=1 
C1124: x53+x62-y53_62 <=1 
C1125: x54+x57-y54_57 <=1 
C1126: x54+x58-y54_58 <=1 
C1127: x54+x59-y54_59 <=1 
C1128: x54+x60 <=1 
C1129: x55+x57 <=1 
C1130: x55+x60 <=1 
C1131: x55+x61 <=1 
C1132: x55+x62 <=1 
C1133: x56+x60 <=1 
C1134: x56+x61-y56_61 <=1 
C1135: x57+x60-y57_60 <=1 
C1136: x58+x59 <=1 
C1137: x58+x60-y58_60 <=1 
C1138: x58+x61 <=1 
C1139: x58+x62 <=1 
C1140: x59+x60 <=1 
C1141: x59+x61-y59_61 <=1 
C1142: x59+x62-y59_62 <=1 
C1143: x60+x61-y60_61 <=1 
C1144: x60+x62-y60_62 <=1 
C1145: x61+x62 <=1 

binary
x0
x1
x2
x3
x4
x5
x6
x7
x8
x9
x10
x11
x12
x13
x14
x15
x16
x17
x18
x19
x20
x21
x22
x23
x24
x25
x26
x27
x28
x29
x30
x31
x32
x33
x34
x35
x36
x37
x38
x39
x40
x41
x42
x43
x44
x45
x46
x47
x48
x49
x50
x51
x52
x53
x54
x55
x56
x57
x58
x59
x60
x61
x62
