problem_generation/data/GISP/train/er_n=63_m=1145_p=0.60_SET2_setparam=100.00_alpha=0.50_582.sol
objective value:                                 1180
x10                                                 1 	(obj:100)
x11                                                 1 	(obj:100)
x23                                                 1 	(obj:100)
x29                                                 1 	(obj:100)
x37                                                 1 	(obj:100)
x38                                                 1 	(obj:100)
x42                                                 1 	(obj:100)
x46                                                 1 	(obj:100)
x48                                                 1 	(obj:100)
x49                                                 1 	(obj:100)
x57                                                 1 	(obj:100)
x59                                                 1 	(obj:100)
y29_59                                              1 	(obj:-1)
y10_49                                              1 	(obj:-1)
y23_57                                              1 	(obj:-1)
y49_59                                              1 	(obj:-1)
y46_49                                              1 	(obj:-1)
y38_49                                              1 	(obj:-1)
y48_57                                              1 	(obj:-1)
y37_38                                              1 	(obj:-1)
y29_57                                              1 	(obj:-1)
y37_42                                              1 	(obj:-1)
y10_29                                              1 	(obj:-1)
y10_42                                              1 	(obj:-1)
y29_37                                              1 	(obj:-1)
y23_59                                              1 	(obj:-1)
y42_59                                              1 	(obj:-1)
y11_48                                              1 	(obj:-1)
y11_57                                              1 	(obj:-1)
y23_49                                              1 	(obj:-1)
y38_42                                              1 	(obj:-1)
y10_59                                              1 	(obj:-1)
